<?xml version = "1.0" standalone="yes"?>
<!-- This file has been generated by DOcplex version 2.23.222  -->
<CPLEXSolution version="1.0">
 <header
   problemName="CVRP"
   objectiveValue="12867.7"
  />
 <variables>
  <variable name="x_0_1" index="0" value="1.00000"/>
  <variable name="x_0_2" index="1" value="1.00000"/>
  <variable name="x_0_3" index="2" value="1.00000"/>
  <variable name="x_0_8" index="7" value="1.00000"/>
  <variable name="x_0_10" index="9" value="1.00000"/>
  <variable name="x_0_11" index="10" value="1.00000"/>
  <variable name="x_0_12" index="11" value="1.00000"/>
  <variable name="x_0_14" index="13" value="1.00000"/>
  <variable name="x_0_15" index="14" value="1.00000"/>
  <variable name="x_1_0" index="15" value="1.00000"/>
  <variable name="x_2_0" index="30" value="1.00000"/>
  <variable name="x_3_0" index="45" value="1.00000"/>
  <variable name="x_4_0" index="60" value="1.00000"/>
  <variable name="x_5_6" index="80" value="1.00000"/>
  <variable name="x_6_0" index="90" value="1.00000"/>
  <variable name="x_7_0" index="105" value="1.00000"/>
  <variable name="x_8_5" index="125" value="1.00000"/>
  <variable name="x_9_0" index="135" value="1.00000"/>
  <variable name="x_10_13" index="162" value="1.00000"/>
  <variable name="x_11_4" index="169" value="1.00000"/>
  <variable name="x_12_0" index="180" value="1.00000"/>
  <variable name="x_13_9" index="204" value="1.00000"/>
  <variable name="x_14_7" index="217" value="1.00000"/>
  <variable name="x_15_0" index="225" value="1.00000"/>
  <variable name="u_1" index="240" value="31.00000"/>
  <variable name="u_2" index="241" value="37.00000"/>
  <variable name="u_3" index="242" value="49.00000"/>
  <variable name="u_4" index="243" value="49.00000"/>
  <variable name="u_5" index="244" value="37.00000"/>
  <variable name="u_6" index="245" value="49.00000"/>
  <variable name="u_7" index="246" value="49.00000"/>
  <variable name="u_8" index="247" value="5.00000"/>
  <variable name="u_9" index="248" value="49.00000"/>
  <variable name="u_10" index="249" value="19.00000"/>
  <variable name="u_11" index="250" value="34.00000"/>
  <variable name="u_12" index="251" value="28.00000"/>
  <variable name="u_13" index="252" value="43.00000"/>
  <variable name="u_14" index="253" value="41.00000"/>
  <variable name="u_15" index="254" value="39.00000"/>
 </variables>
</CPLEXSolution>
